p cnf 15 27
-5 12 -10 6 0
14 0
-14 3 -1 6 0
10 -9 0
-2 0
-1 0
-8 0
-8 0
11 0
8 7 15 0
-13 4 -4 0
-5 -13 0
14 0
-11 -3 7 0
-15 -2 0
-8 -7 2 -3 0
-11 11 13 -13 0
7 -4 -9 0
3 4 -4 0
8 -3 14 0
-9 0
-8 1 10 0
-14 12 -2 -10 0
3 -12 0
-11 5 13 0
-10 0
9 0
